NAME: cuum140.tsp
TYPE: TSP
COMMENT: User-generated TSP file
DIMENSION: 140
EDGE_WEIGHT_TYPE: EUC_2D
NODE_COORD_SECTION
1 99.0 23.0
2 19.0 104.0
3 1.0 41.0
4 115.0 131.0
5 14.0 6.0
6 8.0 75.0
7 51.0 55.0
8 10.0 96.0
9 7.0 71.0
10 140.0 104.0
11 118.0 90.0
12 119.0 75.0
13 44.0 78.0
14 28.0 130.0
15 130.0 59.0
16 97.0 107.0
17 135.0 117.0
18 32.0 31.0
19 80.0 126.0
20 12.0 113.0
21 22.0 50.0
22 126.0 126.0
23 57.0 86.0
24 114.0 34.0
25 102.0 76.0
26 82.0 29.0
27 113.0 95.0
28 56.0 21.0
29 75.0 119.0
30 52.0 136.0
31 115.0 109.0
32 120.0 24.0
33 76.0 6.0
34 57.0 55.0
35 99.0 35.0
36 134.0 41.0
37 112.0 35.0
38 26.0 66.0
39 110.0 45.0
40 37.0 53.0
41 88.0 107.0
42 6.0 57.0
43 14.0 60.0
44 16.0 41.0
45 100.0 85.0
46 39.0 111.0
47 93.0 118.0
48 124.0 115.0
49 97.0 52.0
50 115.0 71.0
51 99.0 89.0
52 8.0 131.0
53 129.0 55.0
54 56.0 81.0
55 81.0 96.0
56 19.0 12.0
57 91.0 106.0
58 31.0 34.0
59 108.0 119.0
60 8.0 49.0
61 132.0 22.0
62 106.0 81.0
63 52.0 99.0
64 27.0 76.0
65 91.0 41.0
66 140.0 135.0
67 111.0 14.0
68 113.0 93.0
69 78.0 139.0
70 137.0 79.0
71 100.0 136.0
72 100.0 110.0
73 109.0 43.0
74 140.0 1.0
75 20.0 107.0
76 112.0 131.0
77 115.0 104.0
78 68.0 10.0
79 75.0 29.0
80 50.0 115.0
81 78.0 96.0
82 88.0 50.0
83 112.0 115.0
84 69.0 108.0
85 68.0 124.0
86 12.0 36.0
87 13.0 130.0
88 99.0 13.0
89 61.0 104.0
90 85.0 113.0
91 51.0 119.0
92 80.0 63.0
93 51.0 87.0
94 89.0 47.0
95 137.0 80.0
96 111.0 130.0
97 23.0 77.0
98 110.0 44.0
99 30.0 24.0
100 102.0 77.0
101 83.0 136.0
102 70.0 43.0
103 83.0 50.0
104 94.0 74.0
105 19.0 4.0
106 25.0 99.0
107 102.0 23.0
108 131.0 50.0
109 43.0 72.0
110 123.0 76.0
111 117.0 69.0
112 27.0 73.0
113 67.0 126.0
114 32.0 79.0
115 78.0 3.0
116 10.0 84.0
117 11.0 14.0
118 127.0 44.0
119 70.0 117.0
120 102.0 93.0
121 66.0 6.0
122 31.0 46.0
123 116.0 132.0
124 86.0 132.0
125 45.0 71.0
126 25.0 97.0
127 96.0 136.0
128 43.0 34.0
129 22.0 52.0
130 114.0 31.0
131 129.0 106.0
132 76.0 125.0
133 101.0 11.0
134 66.0 29.0
135 81.0 104.0
136 50.0 120.0
137 99.0 87.0
138 124.0 35.0
139 36.0 84.0
140 107.0 50.0
EOF





